TCS_Benchmarks/redos_fix/snort1_output_distinct_2456_2455_25_0.smt2
(set-logic QF_S)
(declare-const x String)
(assert (str.in.re x (re.inter  (re.++ (re.* (re.comp  (re.union  (str.to_re "\u{0A}")  (str.to_re "\u{0D}"))) ) (re.+ (re.union (re.range "\u{09}" "\u{0d}") (re.range "\u{20}" "\u{20}") (re.range "\u{85}" "\u{85}") (re.range "\u{a0}" "\u{a0}")) ))  (re.++ (re.* (re.comp  (re.union  (str.to_re "\u{0A}")  (str.to_re "\u{0D}"))) ) (re.++  (re.++  (re.union  (str.to.re "\u{70}")  (str.to.re "\u{50}")) (re.++  (re.union  (str.to.re "\u{6f}")  (str.to.re "\u{4f}")) (re.++  (re.union  (str.to.re "\u{77}")  (str.to.re "\u{57}")) (re.++  (re.union  (str.to.re "\u{65}")  (str.to.re "\u{45}")) (re.++  (re.union  (str.to.re "\u{72}")  (str.to.re "\u{52}")) (re.++  (re.union  (str.to.re "\u{65}")  (str.to.re "\u{45}")) (re.++  (re.union  (str.to.re "\u{64}")  (str.to.re "\u{44}")) (re.++ (re.+ (re.union (re.range "\u{09}" "\u{0d}") (re.range "\u{20}" "\u{20}") (re.range "\u{85}" "\u{85}") (re.range "\u{a0}" "\u{a0}")) ) (re.++  (re.union  (str.to.re "\u{6b}")  (str.to.re "\u{4b}")) (re.++  (re.union  (str.to.re "\u{65}")  (str.to.re "\u{45}")) (re.++  (re.union  (str.to.re "\u{79}")  (str.to.re "\u{59}")) (re.++  (re.union  (str.to.re "\u{6c}")  (str.to.re "\u{4c}")) (re.++  (re.union  (str.to.re "\u{6f}")  (str.to.re "\u{4f}")) (re.++  (re.union  (str.to.re "\u{67}")  (str.to.re "\u{47}")) (re.++  (re.union  (str.to.re "\u{67}")  (str.to.re "\u{47}")) (re.++  (re.union  (str.to.re "\u{65}")  (str.to.re "\u{45}"))  (re.union  (str.to.re "\u{72}")  (str.to.re "\u{52}")))))))))))))))))) (re.+ (re.union (re.range "\u{09}" "\u{0d}") (re.range "\u{20}" "\u{20}") (re.range "\u{85}" "\u{85}") (re.range "\u{a0}" "\u{a0}")) ))) )))
(check-sat)
(get-model)