TCS_Benchmarks/redos_fix/snort1_output_distinct_2456_2455_25_0.txt
([^\n\r]*)(\s+)
([^\n\r]*)([pP][oO][wW][eE][rR][eE][dD]\s+[kK][eE][yY][lL][oO][gG][gG][eE][rR])(\s+)